12,0	0,0	6,8	11,8	0,0	0,0	0,0	0,0	0,0	9,9
10,9	14,7	0,0	14,5	20,0	0,0	0,0	6,5	0,0	0,0
0,0	0,0	19,0	0,0	13,7	7,8	0,0	0,0	12,1	0,0
7,2	0,0	6,6	0,0	0,0	0,0	7,3	0,0	0,0	0,0
0,0	15,7	0,0	13,8	13,2	0,0	0,0	11,3	0,0	0,0
0,0	19,8	14,7	0,0	10,4	6,9	0,0	0,0	8,1	0,0
0,0	11,4	0,0	13,2	0,0	0,0	11,0	0,0	0,0	18,8
18,7	0,0	17,5	0,0	0,0	0,0	0,0	0,0	0,0	8,9
0,0	10,0	0,0	17,1	13,7	0,0	0,0	11,6	0,0	0,0
0,0	0,0	17,2	0,0	0,0	8,7	12,4	0,0	0,0	20,0
0,0	14,9	0,0	0,0	19,7	0,0	14,8	0,0	8,8	19,2
7,8	0,0	6,7	0,0	12,8	0,0	8,8	11,5	11,7	0,0
0,0	16,0	0,0	0,0	0,0	6,5	0,0	6,1	17,8	11,5
19,6	14,8	10,2	0,0	0,0	6,3	0,0	9,6	12,8	0,0
17,8	0,0	17,6	0,0	13,1	15,3	12,2	10,7	0,0	0,0
0,0	7,1	0,0	10,7	0,0	15,8	0,0	5,5	0,0	0,0
11,1	0,0	6,2	7,1	15,6	0,0	0,0	18,6	0,0	0,0
0,0	0,0	15,8	0,0	0,0	11,2	7,7	0,0	15,7	17,9
16,6	0,0	0,0	6,4	15,8	19,1	8,3	5,9	0,0	17,4
0,0	9,2	0,0	8,1	0,0	0,0	16,8	0,0	14,6	5,5
									
2,7	2,9	4,8	4,3	2,9	4,6	3,7	4,8	4,7	2,7
